SECTION Graph
Nodes 340
Edges 339

E 84 85 5
E 84 207 13
E 85 86 5
E 86 87 5
E 87 88 5
E 88 89 5
E 89 90 5
E 90 91 5
E 91 92 5
E 92 93 5
E 93 94 5
E 94 95 5
E 95 96 5
E 96 97 5
E 97 98 5
E 98 99 5
E 99 218 13
E 112 230 13
E 145 146 5
E 145 268 13
E 146 147 5
E 147 148 5
E 148 149 5
E 149 150 5
E 150 151 5
E 151 152 5
E 152 153 5
E 153 154 5
E 154 155 5
E 155 156 5
E 156 157 5
E 157 158 5
E 158 280 13
E 164 165 5
E 164 287 13
E 165 166 5
E 166 167 5
E 167 168 5
E 168 169 5
E 169 170 5
E 170 171 5
E 171 172 5
E 172 295 13
E 207 333 13
E 218 219 5
E 219 220 5
E 220 221 5
E 221 222 5
E 222 223 5
E 223 224 5
E 224 348 13
E 227 228 5
E 227 354 13
E 228 229 5
E 229 230 5
E 230 357 13
E 241 242 5
E 242 243 5
E 243 244 5
E 244 245 5
E 245 246 5
E 246 247 5
E 247 248 5
E 248 249 5
E 249 376 13
E 268 397 13
E 280 407 13
E 283 284 5
E 283 411 13
E 284 285 5
E 285 286 5
E 286 287 5
E 295 422 13
E 323 324 5
E 323 454 13
E 324 325 5
E 325 326 5
E 326 327 5
E 327 328 5
E 328 329 5
E 329 330 5
E 330 331 5
E 331 332 5
E 332 333 5
E 348 349 5
E 349 350 5
E 350 351 5
E 351 352 5
E 352 353 5
E 353 354 5
E 357 486 13
E 376 377 5
E 377 378 5
E 378 379 5
E 379 380 5
E 380 381 5
E 381 382 5
E 382 383 5
E 383 384 5
E 384 385 5
E 385 386 5
E 386 387 5
E 387 388 5
E 388 389 5
E 389 390 5
E 390 391 5
E 391 392 5
E 392 393 5
E 393 394 5
E 394 395 5
E 395 396 5
E 396 397 5
E 407 408 5
E 408 409 5
E 409 410 5
E 410 411 5
E 422 423 5
E 423 424 5
E 424 425 5
E 425 426 5
E 426 427 5
E 427 428 5
E 428 429 5
E 429 430 5
E 430 431 5
E 431 432 5
E 432 433 5
E 433 434 5
E 434 435 5
E 435 436 5
E 436 437 5
E 437 438 5
E 438 439 5
E 439 440 5
E 440 441 5
E 441 442 5
E 442 443 5
E 443 444 5
E 444 445 5
E 445 446 5
E 446 447 5
E 447 448 5
E 448 449 5
E 449 450 5
E 450 451 5
E 451 452 5
E 452 453 5
E 453 454 5
E 486 608 13
E 608 732 13
E 732 733 5
E 733 856 13
E 856 857 5
E 857 975 13
E 975 976 5
E 976 1095 13
E 1095 1215 13
E 1215 1347 13
E 1347 1473 13
E 1473 1601 13
E 1601 1723 13
E 1723 1841 13
E 1841 1969 13
E 1969 2083 13
E 2083 2213 13
E 2213 2332 13
E 2332 2433 13
E 2433 2555 13
E 2555 2676 13
E 2676 2778 13
E 2778 2890 13
E 2890 3013 13
E 2893 2894 5
E 2893 3016 13
E 2894 2895 5
E 2895 2896 5
E 2896 2897 5
E 2897 3019 13
E 3013 3014 5
E 3014 3015 5
E 3015 3016 5
E 3016 3128 13
E 3128 3253 13
E 3253 3384 13
E 3384 3499 13
E 3499 3622 13
E 3622 3749 13
E 3748 3749 5
E 3748 3871 13
E 3871 3999 13
E 3949 3950 5
E 3949 4078 13
E 3950 3951 5
E 3951 3952 5
E 3952 3953 5
E 3953 3954 5
E 3954 3955 5
E 3955 3956 5
E 3956 3957 5
E 3957 3958 5
E 3958 3959 5
E 3959 3960 5
E 3960 3961 5
E 3961 3962 5
E 3962 3963 5
E 3963 3964 5
E 3964 3965 5
E 3965 3966 5
E 3966 3967 5
E 3967 3968 5
E 3968 3969 5
E 3969 3970 5
E 3970 3971 5
E 3971 3972 5
E 3972 3973 5
E 3973 3974 5
E 3974 3975 5
E 3975 3976 5
E 3976 3977 5
E 3977 3978 5
E 3978 4101 13
E 3985 3986 5
E 3985 4108 13
E 3986 3987 5
E 3987 3988 5
E 3988 3989 5
E 3989 3990 5
E 3990 3991 5
E 3991 3992 5
E 3992 3993 5
E 3993 3994 5
E 3994 3995 5
E 3995 3996 5
E 3996 3997 5
E 3997 3998 5
E 3998 3999 5
E 4078 4191 13
E 4101 4102 5
E 4101 4210 13
E 4102 4103 5
E 4103 4104 5
E 4104 4105 5
E 4105 4106 5
E 4106 4107 5
E 4107 4108 5
E 4191 4308 13
E 4210 4330 13
E 4308 4421 13
E 4330 4446 13
E 4420 4421 5
E 4420 4540 13
E 4446 4566 13
E 4539 4540 5
E 4539 4661 13
E 4566 4689 13
E 4661 4782 13
E 4689 4806 13
E 4782 4907 13
E 4806 4937 13
E 4907 5023 13
E 4934 4935 5
E 4935 4936 5
E 4936 4937 5
E 5023 5142 13
E 5142 5264 13
E 5264 5389 13
E 5348 5349 5
E 5348 5472 13
E 5349 5350 5
E 5350 5351 5
E 5351 5352 5
E 5352 5353 5
E 5353 5354 5
E 5354 5355 5
E 5355 5356 5
E 5356 5357 5
E 5357 5358 5
E 5358 5359 5
E 5359 5360 5
E 5360 5361 5
E 5361 5362 5
E 5362 5363 5
E 5363 5364 5
E 5364 5365 5
E 5365 5366 5
E 5366 5367 5
E 5367 5368 5
E 5368 5369 5
E 5369 5370 5
E 5370 5371 5
E 5371 5372 5
E 5372 5373 5
E 5373 5374 5
E 5374 5375 5
E 5375 5376 5
E 5376 5377 5
E 5377 5378 5
E 5378 5379 5
E 5379 5380 5
E 5380 5381 5
E 5381 5382 5
E 5382 5383 5
E 5383 5384 5
E 5384 5385 5
E 5385 5386 5
E 5386 5387 5
E 5387 5388 5
E 5388 5389 5
E 5467 5468 5
E 5467 5595 13
E 5468 5469 5
E 5469 5470 5
E 5470 5471 5
E 5471 5472 5
E 5588 5589 5
E 5588 5710 13
E 5589 5590 5
E 5590 5591 5
E 5591 5592 5
E 5592 5593 5
E 5593 5594 5
E 5594 5595 5
E 5701 5702 5
E 5701 5826 13
E 5702 5703 5
E 5703 5704 5
E 5704 5705 5
E 5705 5706 5
E 5706 5707 5
E 5707 5708 5
E 5708 5709 5
E 5709 5710 5
E 5826 5941 13
E 5939 5940 5
E 5939 6048 13
E 5940 5941 5
E 6048 6170 13
E 6168 6169 5
E 6169 6170 5
END
SECTION Terminals
T 112
T 164
T 167
T 227
T 241
T 242
T 3016
T 3019
T 3949
T 3950
T 4101
T 4102
T 4934
T 4935
T 6168
T 6169
END
SECTION Cost
2311
END
